p cnf 10 50
-9 -2 -7 0
9 10 -3 0
9 3 6 0
-1 -9 -7 0
9 1 10 0
-6 5 1 0
9 -8 4 0
1 -6 4 0
-5 6 -4 0
3 -7 1 0
4 -8 10 0
2 -6 10 0
2 10 4 0
-10 2 8 0
-5 -7 -9 0
-4 -7 -2 0
-6 4 7 0
6 -1 -10 0
10 -3 -9 0
-9 5 4 0
1 3 -2 0
9 -4 1 0
-2 6 3 0
-2 8 9 0
8 7 -6 0
10 -6 5 0
6 -3 9 0
-4 6 -9 0
-5 8 -1 0
3 -7 -8 0
-7 -4 -1 0
5 3 9 0
-3 5 1 0
9 3 5 0
-10 9 1 0
6 -4 10 0
4 -7 6 0
-7 5 6 0
7 1 9 0
-1 2 7 0
-9 4 1 0
1 7 -6 0
-10 -5 -6 0
-9 -5 2 0
10 7 3 0
-2 10 -9 0
-5 -2 -3 0
6 -3 -2 0
-8 10 9 0
6 -10 4 0